0001
0001
1000
1000
0001
0001
1000
1000
0010
0010
0100
0100
0010
0010
0100
0100
,
0001
0001
0100
0100
0010
0010
1000
1000
0001
0001
0100
0100
0010
0010
1000
1000
,
0001
0001
0100
0100
0001
0001
0100
0100
0010
0010
1000
1000
0010
0010
1000
1000
,
0001
0001
0100
0100
0010
0010
0100
0100
0001
0001
1000
1000
0001
0001
0100
0100
,
0011
1000
0011
0100
1000
0010
0101
0110
,
1000
0000
0100
0000
1001
0000
0010
0000
0101
0000
0010
0001
1100
0000
0011
0000
,
1000
0100
0011
1000
0010
0100
1001
0110
,
0001
0010
1100
0010
0101
1000
0101
1000
,
0011
0100
0010
0100
1000
0100
0010
1100
,
0001
0000
0000
0000
0000
0000
0000
0000
0100
0000
0000
0000
0000
0000
0000
0000
0010
0000
0000
0000
0000
0000
0000
0000
0100
0000
0000
0000
0000
0000
0000
0000
1000
0000
0000
0000
0000
0000
0000
0000
0010
0001
0000
0000
0000
0000
0000
0000
1000
0000
0000
0000
0000
0000
0000
0000
0110
0000
0000
0000
0000
0000
0000
0000
,
0001
0100
0010
0100
1000
0100
0010
1100
,
0001
0000
0000
0000
0000
0000
0000
0000
0000
0000
0000
0000
0000
0000
0000
0000
0000
0000
0000
0000
0000
0000
0000
0000
0100
0000
0000
0000
0000
0000
0000
0000
0000
0000
0000
0000
0000
0000
0000
0000
0000
0000
0000
0000
0000
0000
0000
0000
0010
0000
0000
0000
0000
0000
0000
0000
0000
0000
0000
0000
0000
0000
0000
0000
0000
0000
0000
0000
0000
0000
0000
0000
0100
0000
0000
0000
0000
0000
0000
0000
0000
0000
0000
0000
0000
0000
0000
0000
0000
0000
0000
0000
0000
0000
0000
0000
1000
0000
0000
0001
0000
0000
0000
0000
0000
0000
0000
0000
0000
0000
0000
0000
0000
0000
0000
0000
0000
0000
0000
0000
0010
0000
0000
0000
0000
0000
0000
0000
0000
0000
0000
0000
0000
0000
0000
0000
0000
0000
0000
0000
0000
0000
0000
0000
1200
0000
0000
0000
0000
0000
0000
0000
0000
0000
0000
0000
0000
0000
0000
0000
0000
0000
0000
0000
0000
0000
0000
0000
0000
0000
0000
0000
0000
0000
0000
0000
0000
0000
0000
0000
0000
0000
0000
0000
0300
0000
0000
0000
0000
0000
0000
0000
,
1001
0100
0011
0100
1010
0100
0011
1100
,
1001
0000
0000
0000
0000
0000
0000
0000
0100
0000
0000
0000
0000
0000
0000
0000
0011
0000
0000
0000
0000
0000
0000
0000
0100
0000
0000
0000
0000
0000
0000
0000
1010
0000
0000
0000
0000
0000
0000
0000
0100
0001
0000
0000
0010
0000
0000
0000
1100
0000
0000
0000
0000
0000
0000
0000
0110
0000
0000
0000
0000
0000
0000
0000
,
1001
0100
0011
0100
1010
0100
0011
1100
,
1001
0000
0100
0000
0011
0000
0100
0100
1001
0001
0010
0010
1100
0000
0000
0000
,
0110
0000
0000
0000
0110
0000
0000
0000
0110
0000
0000
0001
0110
0000
0000
0000
,
0110
0000
0000
0000
0110
0000
0000
0000
0110
0000
0000
0001
0110
0000
0001
0000
,
0110
0000
0000
0000
0110
0000
0000
0000
0110
0000
0000
0001
0110
0000
0000
0000
,
0110
0000
0000
0000
0110
0000
0000
0000
0110
0000
0000
0001
0110
0001
1000
1000
,
0101
0000
0101
0000
0101
0000
0101
0000
1010
0000
1010
0001
1010
0000
1010
0010
,
1001
0000
1001
0000
1001
0000
1001
0000
0110
0000
0110
0001
0110
0000
0110
0010
,
1000
0000
0100
0000
0010
0000
0001
0000
0010
0000
0100
0000
1000
0000
0010
0000
0100
0000
0010
0000
1000
0000
0001
0000
0100
0000
0010
0000
0100
0000
0001
0000
0010
0000
0100
0000
1001
0000
0000
0110
0000
0000
1001
0000
0000
0110
0000
0000
,
2001
0000
0000
0000
0000
0000
0000
0000
0000
0000
0000
0000
0000
0000
0000
3000
,
0000
0200
0000
0000
0300
0000
0002
0000
0000
0003
0000
0000
0000
0000
0000
0000
0000
0000
0000
0000
0000
0000
0000
0000
0000
0000
0000
0000
0000
0000
0000
0000
0000
0000
0000
0000
0000
0000
0000
0000
0000
0000
0000
0000
0000
0000
0000
0000
1011
0000
0000
0000
0000
0000
0000
0000
0000
0000
0000
0000
0000
0000
0000
0000
0000
0000
0000
0000
0000
0000
0000
0000
0000
0000
0000
0000
0000
0000
0000
0000
0000
0000
0000
0000
0110
0000
0000
0000
0000
0000
0000
0000
0000
0000
0000
0000
0000
0000
0000
0000
0000
0000
0000
0000
0000
0000
0000
0000
0110
0000
0000
0000
0000
0000
0000
0000
0000
0000
0000
0000
1001
0000
0000
0000
0000
0000
0000
0000
0000
0000
0000
0000
0000
0000
0000
0000
0000
0000
0000
0000
0000
0000
0000
0000
0110
0000
0000
0000
0000
0000
0000
0000
0000
0000
0000
0000
0000
0000
0000
0000
0000
0000
0000
0000
0000
0000
0000
0000
1010
0000
0000
0000
0000
0000
0000
0000
0000
0000
0000
0000
0000
0000
0000
0000
0000
0000
0000
0000
0000
0000
0000
0000
,
1001
0000
0100
0000
0010
0000
0001
0000
0010
0000
0100
0000
1000
0000
0100
0000
0010
0000
1001
0000
0000
0110
0000
0000
0000
0000
0000
0011
0000
0000
0100
0000
0000
1010
0000
0000
0101
0000
0000
0000
0000
0000
0110
0000
0000
0000
0000
0000
,
1011
0000
0000
0000
0000
0000
0000
0000
0000
0000
0000
0000
0000
0000
0000
0000
0000
0000
0000
0000
0000
0000
0000
0000
0101
0000
0000
0000
0000
0000
1000
0000
0000
0000
0000
0000
1000
0000
0000
0000
0000
0000
0010
0000
0000
0000
0000
0000
0000
0000
0000
0000
0000
0000
1000
0000
0000
0000
0000
0000
0110
0000
0000
0000
0000
0000
0000
0000
0000
0000
0000
0000
0001
0000
0000
0000
0010
0000
0000
0000
0001
0000
0000
0000
1000
0000
0000
0010
0000
0000
0100
0000
0000
0001
0000
0000
,
1010
0000
0100
0000
0011
0000
0100
0000
1010
0000
0100
0001
0110
1000
0010
0000
,
0202
0000
0303
0000
0000
0000
0010
0000
0000
0010
0000
0000
1101
0000
0000
0000
0000
0000
0000
0000
0000
1010
0000
0000
0000
0000
0000
1010
0000
0000
0101
0000
0000
0000
0000
0000
1001
0000
0000
0000
0000
0000
0110
0000
0000
0000
0000
0000
,
1100
0000
0010
0000
0100
0000
0001
0000
1000
0000
0100
0000
0010
0000
0001
0000
0010
0000
1100
0000
0000
0011
0000
0000
0000
0000
0000
1001
0000
0000
0010
0000
0000
0101
0000
0000
1010
0000
0000
0000
0000
0000
0011
0000
0000
0000
0000
0000
,
1110
0000
0000
0000
0000
0000
0000
0000
0000
0000
0000
0000
0000
0000
0000
0000
0000
0000
0000
0000
0000
0000
0000
0000
1010
0000
0000
0000
0000
0000
0100
0000
0000
0000
0000
0000
0100
0000
0000
0000
0000
0000
0001
0000
0000
0000
0000
0000
0000
0000
0000
0000
0000
0000
0100
0000
0000
0000
0000
0000
0011
0000
0000
0000
0000
0000
0000
0000
0000
0000
0000
0000
0010
0000
0000
0000
1000
0000
0000
0000
0010
0000
0000
0000
0100
0000
0000
0001
0000
0000
1000
0000
0000
0010
0000
0000
,
0101
0000
1000
0000
0011
0000
1000
0000
0100
0000
0011
0000
1001
0110
1000
0000
,
0001
0000
0000
0010
0000
0000
0000
0100
0000
0000
0000
0000
1000
0000
0000
0000
0000
0000
0001
0000
0000
0000
0000
0000
0000
0010
0000
0000
0000
0000
0000
0000
0000
0100
0000
0000
0000
0000
0000
0000
0000
0000
1000
0000
0000
0000
0000
0000
0111
0000
0000
0000
0000
0000
0000
0000
0000
0000
0000
0000
0000
0000
0000
0000
0000
0000
0000
0000
0000
0000
0000
0000
0000
0000
0000
0000
0000
0000
0000
0000
0000
0000
0000
0000
1100
0000
0000
0000
0000
0000
0000
0000
0000
0000
0000
0000
0000
0000
0000
0000
0000
0000
0000
0000
0000
0000
0000
0000
1100
0000
0000
0000
0000
0000
0000
0000
0000
0000
0000
0000
0011
0000
0000
0000
0000
0000
0000
0000
0000
0000
0000
0000
0000
0000
0000
0000
0000
0000
0000
0000
0000
0000
0000
0000
1001
0000
0000
0000
0000
0000
0000
0000
0000
0000
0000
0000
0000
0000
0000
0000
0000
0000
0000
0000
0000
0000
0000
0000
1010
0000
0000
0000
0000
0000
0000
0000
0000
0000
0000
0000
0000
0000
0000
0000
0000
0000
0000
0000
0000
0000
0000
0000
,
1100
0000
0010
0000
0001
0000
0100
0000
1000
0000
0010
0000
0001
0000
0010
0000
0100
0000
1001
0000
0000
0110
0000
0000
0000
0000
0000
0011
0000
0000
1000
0000
0000
0110
0000
0000
1001
0000
0000
0000
0000
0000
1100
0000
0000
0000
0000
0000
,
0111
0000
0000
0000
0000
0000
0000
0000
0000
0000
0000
0000
0000
0000
0000
0000
0000
0000
0000
0000
0000
0000
0000
0000
0011
0000
0000
0000
0000
0000
0100
0000
0000
0000
0000
0000
0100
0000
0000
0000
0000
0000
0010
0000
0000
0000
0000
0000
0000
0000
0000
0000
0000
0000
0100
0000
0000
0000
0000
0000
1010
0000
0000
0000
0000
0000
0000
0000
0000
0000
0000
0000
0001
0000
0000
0000
0100
0000
0000
0000
0001
0000
0000
0000
0010
0000
0000
1000
0000
0000
0001
0000
0000
0100
0000
0000
,
1010
0000
0100
0000
0011
0000
0100
0000
1010
0000
0010
0001
0110
1000
0100
0000
,
0011
0000
0100
0000
1011
0000
0000
0110
0000
0110
1001
0000
0101
0000
0110
0000
,
1001
0000
0010
0000
0100
0000
0001
0000
0010
0000
1000
0000
0100
0000
0010
0000
0100
0000
1001
0000
0000
0110
0000
0000
0000
0000
0000
0110
0000
0000
0001
0000
0000
1010
0000
0000
0101
0000
0000
0000
0000
0000
1001
0000
0000
0000
0000
0000
,
1110
0000
0000
0000
0000
0000
0000
0000
0000
0000
0000
0000
0000
0000
0000
0000
0000
0000
0000
0000
0000
0000
0000
0000
0110
0000
0000
0000
0000
0000
1000
0000
0000
0000
0000
0000
1000
0000
0000
0000
0000
0000
0001
0000
0000
0000
0000
0000
0000
0000
0000
0000
0000
0000
1000
0000
0000
0000
0000
0000
0101
0000
0000
0000
0000
0000
0000
0000
0000
0000
0000
0000
0010
0000
0000
0000
0100
0000
0000
0000
0010
0000
0000
0000
0001
0000
0000
1000
0000
0000
0010
0000
0000
0100
0000
0000
,
1001
0000
0100
0000
0001
0000
0100
0011
1100
0000
0110
1000
0001
1100
0010
0000
,
1101
0000
0000
0000
,
0000
0000
0000
0000
,
0000
0000
0000
0000
,
0000
0000
0000
0000
,
0000
0000
0000
0000
,
0000
0000
0000
0000
,
0000
0000
0000
0000
,
0000
0000
0000
0000
,
0000
0000
0000
0000